(set-info :source |printed by MathSAT|)
(declare-fun call_intloopcounter.time.next () Int)
(declare-fun call_greycounter.out () Bool)
(declare-fun d.next () Bool)
(declare-fun call_greycounter.flby () Bool)
(declare-fun call_intloopcounter.out.next () Bool)
(declare-fun call_intloopcounter.flby () Int)
(declare-fun call_intloopcounter.ite.next () Int)
(declare-fun call_greycounter.a () Bool)
(declare-fun b () Bool)
(declare-fun d () Bool)
(declare-fun call_greycounter.flby2 () Bool)
(declare-fun call_greycounter.out.next () Bool)
(declare-fun call_intloopcounter.time () Int)
(declare-fun call_greycounter.a.next () Bool)
(declare-fun call_greycounter.flby2.next () Bool)
(declare-fun call_greycounter.flby.next () Bool)
(declare-fun _OK_.next () Bool)
(declare-fun call_greycounter.b.next () Bool)
(declare-fun call_intloopcounter.flby.next () Int)
(declare-fun _OK_ () Bool)
(declare-fun call_greycounter.b () Bool)
(declare-fun call_intloopcounter.out () Bool)
(declare-fun b.next () Bool)
(define-fun .def_170 () Bool (= call_intloopcounter.flby.next call_intloopcounter.time.next))
(define-fun .def_167 () Bool (= call_intloopcounter.time.next 2))
(define-fun .def_168 () Bool (= call_intloopcounter.out.next .def_167))
(define-fun .def_164 () Bool (= call_greycounter.flby2.next call_greycounter.b.next))
(define-fun .def_162 () Bool (= call_greycounter.flby.next call_greycounter.a.next))
(define-fun .def_159 () Bool (and call_greycounter.a.next call_greycounter.b.next))
(define-fun .def_160 () Bool (= call_greycounter.out.next .def_159))
(define-fun .def_155 () Bool (= d.next call_intloopcounter.out.next))
(define-fun .def_152 () Bool (= b.next call_greycounter.out.next))
(define-fun .def_149 () Bool (= b.next d.next))
(define-fun .def_150 () Bool (= _OK_.next .def_149))
(define-fun .def_153 () Bool (and .def_150 .def_152))
(define-fun .def_156 () Bool (and .def_153 .def_155))
(define-fun .def_161 () Bool (and .def_156 .def_160))
(define-fun .def_163 () Bool (and .def_161 .def_162))
(define-fun .def_165 () Bool (and .def_163 .def_164))
(define-fun .def_169 () Bool (and .def_165 .def_168))
(define-fun .def_171 () Bool (and .def_169 .def_170))
(define-fun .def_120 () Bool (= call_intloopcounter.time call_intloopcounter.flby))
(define-fun .def_116 () Bool (= call_intloopcounter.time 2))
(define-fun .def_117 () Bool (= call_intloopcounter.out .def_116))
(define-fun .def_113 () Bool (= call_greycounter.b call_greycounter.flby2))
(define-fun .def_110 () Bool (= call_greycounter.a call_greycounter.flby))
(define-fun .def_106 () Bool (and call_greycounter.a call_greycounter.b))
(define-fun .def_107 () Bool (= call_greycounter.out .def_106))
(define-fun .def_102 () Bool (= d call_intloopcounter.out))
(define-fun .def_99 () Bool (= b call_greycounter.out))
(define-fun .def_96 () Bool (= b d))
(define-fun .def_97 () Bool (= _OK_ .def_96))
(define-fun .def_100 () Bool (and .def_97 .def_99))
(define-fun .def_103 () Bool (and .def_100 .def_102))
(define-fun .def_108 () Bool (and .def_103 .def_107))
(define-fun .def_111 () Bool (and .def_108 .def_110))
(define-fun .def_114 () Bool (and .def_111 .def_113))
(define-fun .def_118 () Bool (and .def_114 .def_117))
(define-fun .def_121 () Bool (and .def_118 .def_120))
(define-fun .def_172 () Bool (and .def_121 .def_171))
(define-fun .def_144 () Bool (= call_intloopcounter.ite.next call_intloopcounter.flby.next))
(define-fun .def_136 () Bool (= call_intloopcounter.time 3))
(define-fun .def_139 () Bool (not .def_136))
(define-fun .def_138 () Bool (= call_intloopcounter.ite.next 0))
(define-fun .def_140 () Bool (or .def_138 .def_139))
(define-fun .def_135 () Bool (= call_intloopcounter.time call_intloopcounter.ite.next))
(define-fun .def_137 () Bool (or .def_135 .def_136))
(define-fun .def_141 () Bool (and .def_137 .def_140))
(define-fun .def_132 () Bool (= call_greycounter.a call_greycounter.flby2.next))
(define-fun .def_128 () Bool (not call_greycounter.b))
(define-fun .def_130 () Bool (= .def_128 call_greycounter.flby.next))
(define-fun .def_133 () Bool (and .def_130 .def_132))
(define-fun .def_142 () Bool (and .def_133 .def_141))
(define-fun .def_145 () Bool (and .def_142 .def_144))
(define-fun .def_173 () Bool (and .def_145 .def_172))
(assert .def_173)
